NAME: bip_60_6
TYPE: TSP
COMMENT: bip_60_6
DIMENSION: 60
EDGE_WEIGHT_TYPE: EUC_2D
NODE_COORD_SECTION
1 19 75
2 31 49
3 3 39
4 77 31
5 66 56
6 92 94
7 61 19
8 7 17
9 55 33
10 35 16
11 78 92
12 27 43
13 36 88
14 13 47
15 42 93
16 49 44
17 75 28
18 67 50
19 99 78
20 99 53
21 71 83
22 19 25
23 20 67
24 68 56
25 15 39
26 46 8
27 83 42
28 62 63
29 92 90
30 65 38
31 458 471
32 473 484
33 456 440
34 459 495
35 497 413
36 488 414
37 420 494
38 493 440
39 403 491
40 421 440
41 409 428
42 407 412
43 451 454
44 478 480
45 429 437
46 438 468
47 486 450
48 417 497
49 454 439
50 454 493
51 427 476
52 427 468
53 479 426
54 452 409
55 419 444
56 478 414
57 424 445
58 439 421
59 493 493
60 447 453
